p tw 105 658
1 4
1 8
1 10
1 13
1 14
1 15
1 16
1 17
1 18
2 3
2 5
2 8
2 10
2 13
2 14
2 16
2 17
3 4
3 6
3 8
3 11
3 15
4 5
4 8
4 10
4 11
4 12
4 14
4 15
4 18
5 8
5 9
5 10
5 13
5 17
5 34
6 8
6 9
6 10
6 11
6 15
6 17
7 8
7 9
7 11
7 12
7 13
8 9
8 10
8 11
8 12
8 13
8 14
8 15
8 16
8 17
8 18
8 27
8 38
8 101
9 10
9 15
9 16
9 17
9 93
10 11
10 12
10 14
10 15
10 17
11 16
11 17
11 18
11 20
12 13
12 15
12 16
12 17
13 14
13 15
13 16
13 17
13 18
14 18
15 17
15 18
17 46
19 29
19 81
19 83
20 74
20 79
21 50
21 75
21 83
21 92
22 23
22 50
22 105
23 48
23 84
24 28
24 29
24 35
24 36
24 40
24 50
24 55
24 58
24 62
24 63
24 64
24 66
24 77
25 26
25 29
25 30
25 32
25 33
25 36
25 38
25 40
25 42
25 44
25 45
25 57
25 62
25 70
25 74
25 76
25 78
26 29
26 30
26 31
26 33
26 34
26 41
26 44
26 46
26 51
26 52
26 53
26 55
26 57
26 62
26 67
26 68
26 70
26 72
26 74
26 75
27 28
27 29
27 33
27 38
27 39
27 48
27 50
27 54
27 58
27 60
27 70
27 74
27 78
27 101
28 32
28 34
28 35
28 36
28 37
28 38
28 42
28 53
28 63
28 66
28 67
28 68
28 70
28 73
28 75
29 30
29 32
29 33
29 34
29 35
29 36
29 40
29 41
29 43
29 45
29 48
29 52
29 53
29 55
29 56
29 61
29 65
29 68
29 70
29 81
30 44
30 50
30 52
30 53
30 56
30 57
30 66
30 70
30 74
31 39
31 46
31 47
31 52
31 53
31 55
31 59
31 62
31 67
31 73
31 78
32 33
32 35
32 36
32 37
32 38
32 43
32 48
32 50
32 53
32 58
32 62
32 64
32 66
32 68
32 70
32 71
33 46
33 50
33 53
33 54
33 62
33 66
33 72
33 74
33 105
34 35
34 36
34 37
34 41
34 43
34 44
34 45
34 48
34 65
34 71
34 85
35 41
35 42
35 43
35 46
35 48
35 55
35 58
35 59
35 60
35 61
35 66
35 67
35 70
35 73
35 74
35 76
35 77
36 38
36 43
36 45
36 46
36 47
36 48
36 49
36 50
36 53
36 54
36 56
36 58
36 67
36 69
36 70
36 72
36 74
37 38
37 41
37 46
37 48
37 49
37 50
37 55
37 62
37 64
37 65
37 71
37 72
37 74
37 77
38 39
38 47
38 53
38 54
38 55
38 56
38 60
38 61
38 62
38 65
38 66
38 67
38 70
38 72
38 74
38 82
38 85
38 105
39 42
39 43
39 44
39 46
39 47
39 48
39 54
39 57
39 59
39 62
39 64
39 71
39 72
39 75
39 76
39 77
39 78
40 45
40 49
40 54
40 61
40 63
40 64
40 65
40 67
40 73
40 76
41 47
41 48
41 54
41 56
41 57
41 58
41 59
41 60
41 63
41 64
41 65
41 66
41 67
41 71
41 73
41 76
41 77
42 43
42 44
42 47
42 48
42 53
42 54
42 55
42 59
42 64
42 68
42 70
42 71
43 45
43 47
43 48
43 49
43 50
43 52
43 54
43 56
43 58
43 71
43 76
44 52
44 61
44 64
44 68
44 69
44 70
44 72
44 74
44 75
45 50
45 61
45 68
46 49
46 50
46 55
46 59
46 65
46 66
46 70
46 71
46 72
46 73
46 76
46 78
47 49
47 50
47 51
47 53
47 54
47 55
47 56
47 59
47 61
47 63
47 64
47 69
47 72
47 77
47 78
48 50
48 55
48 56
48 57
48 60
48 61
48 63
48 64
48 67
48 69
48 75
48 84
49 50
49 51
49 54
49 55
49 56
49 63
49 65
49 78
50 54
50 55
50 69
50 70
50 73
50 77
50 78
50 83
50 85
50 105
51 55
51 56
51 57
51 59
51 61
51 65
51 66
51 67
51 69
51 73
51 74
51 75
52 57
52 59
52 61
52 69
52 72
52 74
53 58
53 59
53 61
53 62
53 63
53 66
53 72
53 73
54 58
54 70
54 73
54 75
54 77
54 91
55 56
55 61
55 62
55 64
55 67
55 68
55 77
55 78
56 57
56 58
56 75
56 78
57 58
57 61
57 63
57 65
57 74
57 78
58 63
58 66
58 69
58 74
58 75
58 77
58 98
59 66
59 70
59 71
60 64
60 70
60 74
60 78
61 62
61 63
61 65
61 66
61 69
61 74
61 75
61 76
61 77
61 78
62 65
62 66
62 69
62 72
62 73
62 74
62 75
62 77
62 78
63 69
63 71
63 78
64 66
64 67
64 69
64 73
64 74
64 76
65 66
65 67
65 72
65 73
66 68
66 69
66 70
66 73
66 75
66 76
66 78
67 68
67 70
67 71
67 73
67 74
67 78
68 70
68 74
68 78
69 70
69 71
69 74
69 76
70 71
70 73
70 74
70 80
73 74
73 75
74 75
74 79
74 86
75 92
76 77
78 86
79 80
80 81
80 82
80 99
81 82
82 85
84 85
86 101
87 89
87 93
87 97
87 98
87 101
87 102
87 104
88 94
88 96
88 101
88 103
89 90
89 91
89 92
89 94
89 96
89 99
89 101
89 104
90 92
90 93
90 96
90 97
90 99
90 101
91 97
91 101
91 102
92 93
92 100
92 101
92 102
92 103
92 104
93 96
93 101
93 102
94 95
94 97
94 99
94 101
94 103
95 97
95 101
95 104
96 97
96 98
96 99
96 101
97 99
97 100
97 101
97 102
98 100
98 101
99 101
99 102
100 101
100 104
101 102
101 103
101 104
102 103
103 105
